arranged.pdb                            
1.0
       20.2399997711         0.0000000000         0.0000000000
        0.0000000000        19.9300003052         0.0000000000
        0.0000000000         0.0000000000        13.2899999619
    O   Si   Al    C    H
  192   95    1    2    5
Selective dynamics
Cartesian
    10.278250694         0.953261554         9.452565193
     8.006874084         1.219851613        10.727589607
     8.487820625         2.716659784         8.580013275
     7.998974800         0.145593956         8.296842575
     6.556643963         0.753835499        12.897168159
     6.483151913        18.990146637        10.836381912
     5.345676422         1.436715126        10.650244713
     6.026313782         2.425403833         1.547335386
     4.030204773         1.087077022         0.375048757
     5.759959221        19.736244202         1.931491256
     2.210746527         2.662426710         1.491812229
     1.552045345         1.191841364        12.683617592
     2.712829828         1.539960742        10.343772888
     1.906946063        19.044858932        11.044575691
     4.264401436         2.868487597         8.740847588
    10.258008957        17.332281113         9.549828529
     7.908505440        16.711360931        10.906314850
     8.871858597        14.853308678         8.954277039
     6.251498699        17.266454697        12.839650154
     5.307131290        16.650976181        10.398641586
     5.525054455        14.966749191         0.591404736
     3.777896643        16.983827591         0.409975171
     2.125856876        14.957653046         0.936826408
     1.402034283        16.924243927        12.579388618
     2.678726435        16.658964157        10.252098083
     4.072816849        14.961290359         8.785996437
    20.005647659        18.990690231         2.821016073
     9.941119194        10.995439529         3.768350840
     0.180068120         8.953587532        10.411273003
     9.896402359        18.878543854         3.819872141
     0.149807587         1.014332294        10.430832863
    10.298492432         9.008464813         9.467965126
    20.073257446        10.950264931         2.834087610
     2.045504570        18.782144547         4.079216480
    12.250312805        11.197530746         2.561470032
    18.119979858         8.851206779         9.176621437
    12.159832001        18.864168167         2.510803461
    18.093814850         1.246617556         9.176281929
     8.019223213         8.865612030        10.723301888
     2.128264904        11.179443359         4.062187672
     1.597825289        17.311317444         1.914846182
    11.783244133        12.612633705         4.761414051
    18.505342484         7.403669357        11.366723061
    11.877803802        17.328063965         4.646383762
    18.555252075         2.671121359        11.373975754
     8.433832169         7.334308624         8.586016655
     1.669805527        12.574449539         1.848122954
     1.998127341        19.926095963         1.685911059
    12.114507675         9.978310585         4.922180176
    18.272565842        10.046456337        11.545281410
    12.056741714         0.039712530         4.936770439
    18.164426804         0.054896757        11.540317535
     8.092332840         9.931579590         8.283091545
     2.043355227         9.949887276         1.720374584
     3.439136982        19.196754456         6.260683537
    13.659004211        10.742463112         0.368667006
    16.681035995         9.266794205         7.013917923
    13.656294823        19.186538696         0.366877407
    16.684112549         0.771875083         6.997112751
     6.556031704         9.207268715        12.884957314
     3.490771770        10.717961311         6.261606693
     3.644745588         0.968595505         4.189784527
    13.795130730         9.052161217         2.445663691
    16.509071350        10.953012466         9.098610878
    13.839716911         0.979713082         2.422771692
    16.572120667        19.008939743         9.075202942
     6.329247475        10.915782928        10.837272644
     3.664509058         9.017060280         4.193551064
     4.689828873        18.488021851         4.024768353
    14.900127411        11.451216698         2.581863880
    15.477906227         8.532092094         9.251932144
    14.789065361        18.462589264         2.650284052
    15.433325768         1.458753228         9.215598106
     5.391921043         8.468702316        10.618023872
     4.781602859        11.401888847         4.052784443
     4.113538265        17.511804581         8.158679008
    14.235456467        12.438318253        11.746768951
    16.168779373         7.568489552         5.084140301
    14.145074844        17.541286469        11.682884216
    16.126983643         2.458419323         5.072167397
     6.041509628         7.542079449         1.545236945
     4.106000900        12.403196335         8.174970627
     5.979522705        19.028057098         6.968617439
    16.189954758        11.027954102        12.871188164
    14.168101311         8.916480064         6.226153374
    16.166513443        18.837467194        12.848522186
    14.159862518         1.057163835         6.203492641
     4.036753178         8.851839066         0.358045697
     6.021523952        10.962987900         6.995198250
     4.186659336         0.181789935         8.617516518
    14.403022766         9.817376137        11.313645363
    15.915234566        10.177854538         4.671631813
    14.419886589         0.235408902        11.337882996
    15.944679260        19.775253296         4.652137280
     5.746756554        10.158831596         1.914219141
     4.257793427         9.786159515         8.601832390
     7.684680939        17.413948059         8.211477280
    18.012834549        12.685430527        11.849163055
    12.338229179         7.320472240         5.150473118
    18.064163208        17.321041107        11.760570526
    12.352036476         2.687233686         5.139643192
     2.182289362         7.294148922         1.441890240
     7.816654205        12.576438904         8.087756157
     8.462599754        18.796281815         6.055880547
    18.638397217        11.140889168         0.612978697
    11.714037895         8.801052094         7.241323948
    18.638196945        18.829107285         0.556545615
    11.728626251         1.246843338         7.259065151
     1.552560925         8.850619316        12.681298256
     8.466035843        11.126312256         5.967760563
     7.329658031        18.494117737         3.682596445
    17.520746231        11.461404800         2.987842321
    12.850473404         8.487307549         9.612702370
    17.434236526        18.497137070         2.873776436
    12.814618111         1.560828328         9.662178040
     2.752325296         8.508617401        10.364443779
     7.388322353        11.458375931         3.562607288
     8.229429245         0.943200111         4.383632660
    18.317245483         9.049283028         2.246333838
    12.082181931        10.896727562         8.847990990
    18.287700653         0.982200265         2.194509745
    12.162673950        19.075624466         8.845726967
     1.859851360        10.919141769        11.016050339
     8.194585800         9.056853294         4.302793503
     5.823906422        17.071495056         2.131874084
    15.963964462        12.852909088         4.526510239
    14.405290604         7.136702538        11.189049721
    16.006040573        17.097743988         4.529067516
    14.442778587         2.906103373        11.165737152
     4.200644493         7.103933811         8.730607986
     5.755757332        12.827066422         2.077323914
    20.191785812         2.720908642         2.912608624
    10.070315361         7.247884750         3.737844467
    20.216606140        12.702168465        10.334749222
    10.082315445         2.749042511         3.723503590
     0.093625203        17.210327148        10.334527969
    10.084000587        12.527647972         9.501338005
    20.188117981         7.252162933         2.907103062
     2.244676828         3.235219955         4.091784477
    12.356081963         6.800648212         2.542526484
    17.880706787        13.233626366         9.245461464
    12.369646072         3.214260340         2.532507420
    18.061090469        16.784425735         9.147352219
     7.828955173        13.123528481        10.690365791
     2.246831417         6.762367249         4.056956768
     1.256197095         4.984625340         2.334820509
    11.414300919         5.001085758         4.274383545
    18.960538864        14.987684250        10.925024986
     3.801630259         2.715070963         6.163833141
    13.891592026         7.300084591         0.471209317
    16.444446564        12.688183784         7.108394146
    13.903314590         2.727051735         0.447936177
    16.461843491        17.252511978         7.112697124
     6.321054459        12.705379486        12.796353340
     3.769598961         7.245804787         6.150243282
     4.885654926         3.270018101         3.809795856
    14.995597839         6.736443996         2.825164080
    15.215894699        13.239211082         9.391355515
    15.013063431         3.312238693         2.791267395
    15.459425926        16.657232285         9.521787643
     5.167731762        13.256292343        10.479760170
     4.886224270         6.706713200         3.804814577
     4.601733685         4.988435745         7.233564854
    14.688242912         5.017219067        12.700984955
    15.700492859        14.974219322         6.031652451
     6.306011677         2.955374718         7.028649807
    16.399183273         7.038965225        12.962195396
    13.948937416        12.976725578         6.271227837
    16.418920517         3.007616043        12.950984955
    13.972878456        16.985330582         6.257856369
     3.789659739        12.971142769         0.272928774
     6.264989376         7.058081627         7.036580563
     7.913500786         5.020939350         7.536376953
    18.044340134         5.031781673        12.313335419
    12.283356667        14.988021851         5.701139927
     8.708515167         3.047979355         5.943403244
    18.831274033         6.958328724         0.681923985
    11.553541183        13.051756859         7.374998569
    18.837875366         3.115836143         0.696865737
    11.536560059        17.022907257         7.264678001
     1.368591428        13.051462173        12.531272888
     8.671656609         7.022034168         5.953626156
     7.517158985         3.338702202         3.567777157
    17.625595093         6.641200066         3.047400236
    12.597103119        13.291103363         9.825576782
    17.640729904         3.376346588         3.073659897
    12.821607590        16.626739502         9.549699783
     2.540888309        13.306453705        10.141415596
     7.514767170         6.621628761         3.577392340
     6.026497841         4.983955383         2.149881601
    16.132150650         5.013779163         4.478559494
    14.171097755        14.979222298        11.100659370
     8.702462196         1.247554302         9.247183800
     6.599532127         0.633920550        11.283821106
     5.579658508         1.021349192         0.878494978
     2.451725960         1.236549973         0.746620893
     1.575220108         0.706710517        11.129796028
     4.130590439         1.486719728         9.574313164
     6.420139313        17.437866211        11.245000839
     5.320757866        16.557794571         0.687529743
     2.220540047        16.541927338         0.636790931
     1.525166988        17.467201233        11.049682617
     4.034970760        16.468194962         9.384652138
     1.349675536        18.758611679         2.610639334
    11.525671959        11.193709373         4.020053387
    18.826116562         8.817273140        10.640757561
    11.499075890        18.765964508         3.998432398
    18.802425385         1.245236635        10.641409874
     8.712941170         8.789634705         9.252591133
     1.416469336        11.160108566         2.600659132
     3.459268093        19.346378326         4.649241924
    13.651004791        10.607447624         1.981789589
    16.693859100         9.404526711         8.625670433
    13.615578651        19.358619690         1.975587487
    16.693662643         0.635679305         8.609900475
     6.574374676         9.365135193        11.274185181
     3.518047571        10.573721886         4.649633884
     4.450428486        18.961427689         7.509654045
    14.633150101        11.005592346        12.386366844
    15.721165657         8.980796814         5.738648891
    14.610879898        18.933891296        12.367746353
    15.715160370         1.033807755         5.722463131
     5.584049702         8.938206673         0.865314424
     4.481878757        10.968382835         7.522451878
     7.540142536        18.790567398         7.406136990
    17.768585205        11.226751328        12.534027100
    12.589283943         8.756114006         5.874625683
    17.749719620        18.740549088        12.488774300
    12.579512596         1.253633857         5.877314568
     2.458359718         8.733760834         0.734789968
     7.598854065        11.154322624         7.342445374
     8.483492851        19.271532059         4.505779743
    18.636581421        10.641475677         2.160972834
    11.733335495         9.308638573         8.786919594
    18.591175079        19.316801071         2.107517481
    11.739782333         0.712526083         8.798379898
     1.584596515         9.319243431        11.122859955
     8.499773979        10.650644302         4.413648129
     5.899105072        18.478784561         2.945552588
    16.074035645        11.464366913         3.701201200
    14.284960747         8.517808914        10.351170540
    16.040307999        18.479837418         3.685164213
    14.275165558         1.514284730        10.350691795
     4.153496742         8.489875793         9.569026947
     5.917935848        11.435503006         2.896779060
     1.410268545         3.411060333         2.702775002
    11.539301872         6.582201958         3.934068680
    18.771207809        13.409217834        10.595425606
    11.548722267         3.421928406         3.924600124
    18.855943680        16.564659119        10.550505638
     8.661370277        13.310545921         9.284090042
     1.404272914         6.564734936         2.678585768
     3.643716097         2.549373865         4.560768604
    13.761045456         7.471942902         2.076072693
    16.512851715        12.531396866         8.719325066
    13.779706955         2.560253143         2.054954052
    16.631715775        17.427213669         8.712009430
     6.417361736        12.497881889        11.185166359
     3.642734766         7.433427334         4.547724724
     4.755073071         3.389242649         7.290644646
    14.853929520         6.615242481        12.650397301
    15.502110481        13.380616188         5.982752323
    14.870897293         3.420969963        12.635648727
    15.523327827        16.570884705         5.980528831
     5.333487511        13.364194870         0.613741755
     4.720762730         6.590550900         7.288235664
     7.851133347         3.430389404         7.270551682
    17.943355560         6.607874870        12.656605721
    12.394063950        13.410537720         6.032868385
    17.961576462         3.455068111        12.659427643
    12.416562080        16.577239990         5.979110241
     2.237497568        13.385807991         0.571499348
     7.817994595         6.609199524         7.274050713
     8.628234863         2.514302492         4.407966137
    18.733856201         7.480465412         2.221389294
    11.581707954        12.444695473         8.884844780
    18.732360840         2.544038534         2.218966246
    11.669560432        17.517047882         8.822464943
     1.442186356        12.487614632        11.003571510
     8.607562065         7.489771366         4.396343708
     6.113378048         3.482714653         2.768801451
    16.227056503         6.513936043         3.860278606
    14.058856964        13.467814445        10.511989594
    16.225032806         3.515492201         3.854667902
    14.147547722        16.476757050        10.460834503
     3.974183321        13.454988480         9.394063950
     6.115029335         6.485894203         2.767161369
     8.762794495        16.539445877         9.229830742
     9.168899536        15.281947136         0.144677311
    10.219320297        15.489864349        12.629832268
     8.420395851        16.328536987        11.679745674
    10.858421326        16.369976044        12.730915070
    10.495790482        14.770094872        11.854833603
     8.552614212        14.384384155         0.053283725
     8.912430763        15.981436729         0.944354653
